% seed = 0

mint = 48;
% maxt = 146;

nActs = 62;
dur = [0,1,3,3,1,3,1,1,2,2,1,2,4,1,3,4,2,6,1,2,2,2,3,3,1,1,2,2,2,3,2,2,4,5,2,2,2,2,2,3,6,1,1,4,3,2,3,2,3,2,2,2,5,3,3,4,2,1,1,3,3,0];

nSkills = 9;
sreq = [| 0,0,0,0,0,0,0,0,0,
	| 0,0,1,0,0,1,0,1,0,
	| 0,0,1,0,1,2,0,0,0,
	| 0,0,0,1,1,0,0,0,0,
	| 0,0,2,0,0,1,1,1,0,
	| 0,0,1,0,0,1,0,0,0,
	| 0,0,0,0,1,0,0,0,0,
	| 0,0,1,0,0,0,0,0,0,
	| 0,0,0,0,0,1,0,0,0,
	| 0,0,0,0,0,0,1,0,0,
	| 0,0,0,0,0,0,1,2,0,
	| 0,0,0,0,0,1,1,2,0,
	| 0,0,1,0,0,1,0,3,0,
	| 0,0,0,0,2,0,1,0,0,
	| 0,0,1,0,1,0,0,1,0,
	| 0,0,0,0,1,0,0,0,0,
	| 0,0,1,0,0,0,1,1,0,
	| 0,0,0,1,0,0,0,1,0,
	| 0,0,0,0,0,0,1,0,0,
	| 0,0,0,0,1,1,2,0,0,
	| 0,0,0,1,1,0,0,0,1,
	| 0,0,1,0,0,1,1,1,0,
	| 0,0,1,0,1,0,1,0,0,
	| 0,0,1,0,1,2,0,1,0,
	| 0,0,1,0,0,0,0,0,0,
	| 0,0,0,0,0,0,0,2,0,
	| 0,0,0,0,1,0,0,0,0,
	| 0,1,0,1,0,1,1,1,0,
	| 0,0,0,0,0,1,3,1,0,
	| 0,0,2,0,0,0,0,0,0,
	| 0,0,0,0,0,2,0,0,0,
	| 0,0,0,0,1,0,1,1,0,
	| 0,0,1,1,1,0,1,1,0,
	| 0,0,2,1,0,1,0,1,0,
	| 0,0,0,0,0,1,2,1,0,
	| 0,0,0,2,1,0,0,0,0,
	| 0,0,1,0,0,1,1,0,0,
	| 0,0,0,0,0,1,1,1,0,
	| 0,0,0,0,1,1,0,0,0,
	| 0,0,1,1,0,0,1,0,0,
	| 0,0,1,1,0,1,0,0,0,
	| 0,0,1,0,3,0,0,1,0,
	| 0,1,0,0,0,0,0,1,0,
	| 1,0,0,1,0,0,0,2,0,
	| 0,0,2,1,1,1,0,0,0,
	| 0,0,0,0,1,2,1,0,0,
	| 0,0,1,0,1,2,0,0,0,
	| 0,0,0,0,0,1,1,1,0,
	| 0,0,0,0,0,0,0,2,0,
	| 0,0,0,0,0,1,0,0,0,
	| 0,0,0,1,1,0,0,1,0,
	| 0,0,0,1,0,0,0,0,0,
	| 0,0,0,0,1,1,1,0,0,
	| 0,0,0,0,0,1,1,0,0,
	| 0,0,1,0,0,2,0,1,0,
	| 0,0,2,0,0,1,0,0,0,
	| 0,0,1,1,0,0,1,2,0,
	| 0,0,0,0,0,0,0,1,0,
	| 0,0,0,0,0,0,1,0,0,
	| 0,0,2,0,0,1,0,1,0,
	| 0,0,0,0,0,0,1,1,0,
	| 0,0,0,0,0,0,0,0,0, |];

% SumOfsreq = 175;

nResources = 16;
mastery = [| false,false,false,true,true,true,false,false,false,
	| false,false,false,false,false,true,false,false,false,
	| false,false,true,false,false,false,false,false,false,
	| false,false,false,false,true,true,false,false,false,
	| false,false,false,false,false,false,false,true,true,
	| false,false,false,false,true,true,false,false,false,
	| false,false,false,false,false,false,true,true,true,
	| false,true,true,true,true,true,false,false,false,
	| false,true,true,false,true,true,true,true,true,
	| false,false,false,false,false,false,true,true,true,
	| true,true,true,false,false,false,false,true,true,
	| false,false,false,true,true,true,true,true,true,
	| false,false,true,false,false,false,false,false,false,
	| false,false,false,true,true,true,false,false,false,
	| false,false,false,false,false,false,true,true,true,
	| false,false,false,true,true,true,false,false,false, |];

nPrecs = 131;
pred = [1,1,1,2,2,2,3,3,3,4,4,4,5,5,6,6,6,7,7,7,8,8,8,9,9,9,10,10,11,11,11,12,12,12,13,13,13,14,14,14,15,15,15,16,16,16,17,17,17,18,18,19,19,20,21,21,22,22,22,23,23,23,24,24,24,25,25,25,26,27,27,28,29,29,29,30,30,30,31,31,31,32,32,32,33,33,33,34,34,34,35,36,36,36,37,37,37,38,39,39,40,41,41,42,42,42,43,44,44,44,45,46,46,47,48,49,50,51,51,51,52,53,54,54,55,56,57,58,59,60,61];
succ = [2,3,4,30,14,8,5,14,7,44,19,28,20,6,43,13,15,9,11,22,50,12,53,10,20,23,33,32,29,30,23,51,39,23,17,18,24,25,22,16,37,21,31,59,20,54,34,36,21,35,30,27,35,61,22,55,42,27,28,26,60,38,25,41,32,45,46,31,43,59,38,48,50,47,32,33,50,37,49,42,40,36,37,48,41,42,36,53,46,47,41,45,38,46,52,44,40,40,43,44,58,49,53,54,47,48,52,57,45,55,56,49,57,61,57,51,51,59,52,54,55,60,60,56,56,58,58,61,62,62,62];

nUnrels = 889;
unpred = [2,2,2,2,2,2,2,2,2,2,2,2,2,2,2,2,2,2,2,3,3,3,3,3,4,4,4,4,4,4,4,4,4,4,4,4,4,4,4,4,4,4,4,4,4,4,4,4,4,4,4,4,4,4,4,4,4,4,4,5,5,5,5,5,5,5,5,5,5,5,5,5,6,6,6,6,6,6,6,6,6,6,6,6,6,6,7,7,7,7,7,7,7,7,7,7,7,7,7,7,7,7,8,8,8,8,8,8,8,8,8,8,8,8,8,8,8,8,8,8,8,8,8,8,8,8,8,8,8,8,8,8,8,8,9,9,9,9,9,9,9,9,9,9,9,9,9,9,9,9,9,9,9,9,9,9,10,10,10,10,10,10,10,10,10,10,10,10,10,10,10,10,10,10,10,10,10,10,10,10,10,10,11,11,11,11,11,11,11,11,11,11,11,11,11,11,11,11,11,11,11,12,12,12,12,12,12,12,12,12,12,12,12,12,12,12,12,12,12,12,12,12,12,12,12,12,12,12,12,12,12,12,13,13,13,13,13,13,13,13,13,13,14,14,14,14,14,14,14,14,14,14,14,14,14,14,14,14,14,14,14,14,14,14,15,15,15,15,15,15,15,15,15,15,15,15,15,15,15,15,15,15,15,15,15,15,16,16,16,16,16,16,16,16,16,16,16,16,16,16,16,16,16,16,16,16,16,16,16,16,16,16,16,16,16,16,16,16,16,16,16,16,16,16,17,17,17,17,17,17,17,17,17,17,17,17,17,17,17,17,17,17,17,18,18,18,18,18,18,18,18,18,18,18,18,18,18,18,18,19,19,19,19,19,19,19,19,19,19,19,19,19,19,19,19,19,19,19,19,19,19,19,19,19,19,20,20,20,20,20,20,20,20,20,20,20,20,20,20,20,20,20,20,20,20,20,20,20,20,20,20,20,20,20,20,20,20,20,20,20,20,20,20,20,20,21,21,21,21,21,21,21,21,21,21,21,21,21,21,21,21,21,21,21,21,21,21,21,21,22,22,22,22,22,22,22,22,22,22,22,22,22,22,22,22,22,22,22,22,22,22,22,22,22,23,23,23,23,23,23,23,23,23,23,23,23,23,23,23,23,23,23,23,23,23,23,23,23,23,23,23,23,24,24,24,24,24,24,24,24,24,24,24,25,25,25,25,25,25,25,25,25,25,25,25,25,25,25,25,25,25,26,26,26,26,26,26,26,26,26,26,26,26,26,26,26,26,26,26,26,26,26,26,26,26,26,26,26,26,26,27,27,27,27,27,27,27,27,27,27,27,27,27,27,27,27,27,27,27,27,27,27,27,27,27,27,27,27,27,28,28,28,28,28,28,28,28,28,28,28,28,28,28,28,28,28,28,28,28,28,28,28,28,28,28,28,28,28,29,29,29,29,29,29,29,29,29,29,30,30,30,30,30,30,31,31,31,31,31,31,31,31,31,31,31,31,31,31,31,32,32,32,32,32,32,32,32,32,32,33,33,33,33,33,33,33,34,34,34,34,34,34,34,34,34,34,34,34,34,35,35,35,35,35,35,35,35,35,35,35,35,35,35,36,36,36,36,36,36,36,36,36,36,37,37,37,37,37,37,37,37,37,37,37,37,37,37,37,38,38,38,38,38,38,38,38,38,38,38,38,38,38,38,38,38,38,38,38,39,39,39,39,39,39,39,39,39,39,39,39,39,40,40,40,40,40,40,40,40,40,40,40,40,40,40,40,40,40,40,40,41,41,41,41,41,41,41,41,41,42,42,42,42,42,42,42,42,42,42,42,43,43,43,43,43,43,43,43,43,43,43,43,43,44,44,44,44,44,44,44,44,44,44,44,45,45,45,45,45,45,45,45,45,45,45,45,45,46,46,46,46,47,47,47,47,47,47,47,47,47,47,47,47,47,48,48,48,48,48,48,48,48,48,48,49,49,49,50,50,51,51,52,52,52,52,52,53,53,53,53,53,53,53,54,54,54,55,55,55,56,56,56,57,57,58,58,59,59,60];
unsucc = [3,4,5,6,7,9,10,11,13,15,17,18,19,21,24,29,32,34,35,4,8,12,19,39,5,6,7,8,9,10,11,12,13,14,15,16,17,18,20,21,22,23,24,25,26,29,30,31,32,33,34,36,37,39,42,43,46,47,50,7,8,9,10,11,12,14,16,19,23,26,29,39,7,8,9,10,11,12,14,16,19,20,23,26,29,39,8,12,13,14,15,16,17,18,19,21,24,25,31,34,35,39,9,10,11,13,14,15,16,17,18,19,20,21,22,24,25,27,28,29,30,31,32,33,34,35,36,37,41,42,46,47,48,49,11,12,13,14,15,16,17,18,19,21,22,24,25,27,28,29,30,31,34,35,39,50,11,12,13,14,15,16,17,18,19,20,21,22,23,24,25,26,27,28,29,30,31,34,35,39,43,50,12,13,14,15,16,17,18,19,20,21,22,24,25,27,28,31,34,35,39,13,14,15,16,17,18,19,20,21,22,24,25,27,28,29,30,31,32,33,34,35,36,37,41,42,46,47,48,49,50,53,14,15,16,19,20,23,26,29,39,43,15,17,18,19,21,23,24,26,29,30,32,33,34,35,36,37,39,41,43,44,50,53,16,17,18,19,20,23,24,25,26,29,30,32,33,34,35,36,39,41,43,46,50,53,17,18,19,21,22,23,24,25,26,27,28,29,30,31,32,33,34,35,36,37,38,39,40,41,42,43,44,45,46,47,48,49,50,51,52,53,55,57,18,19,20,23,24,25,26,29,30,31,32,33,35,37,39,41,43,44,50,19,20,21,22,23,24,25,26,27,28,29,31,32,34,39,43,20,21,22,23,24,25,26,28,29,30,31,32,33,34,36,37,39,42,43,44,45,46,47,48,50,57,21,22,23,24,25,26,27,28,29,30,31,32,33,34,35,36,37,38,39,40,41,42,43,44,45,46,47,48,49,50,51,52,53,54,55,56,57,58,59,60,23,24,25,26,29,30,31,32,33,34,35,36,37,39,41,43,44,45,46,49,50,51,52,53,23,24,25,26,29,30,31,32,33,34,35,36,37,39,41,43,44,45,46,49,50,51,52,53,55,24,25,27,28,29,30,31,32,33,34,35,36,37,39,41,42,44,45,46,47,48,49,50,51,53,54,57,59,26,27,28,29,30,33,34,35,39,43,50,26,27,28,29,30,32,33,34,35,36,37,38,39,41,43,44,50,53,27,28,29,30,31,32,33,34,35,36,37,38,39,40,41,42,44,45,46,47,48,49,50,51,53,54,57,59,60,28,29,30,31,32,33,34,35,36,37,39,41,42,43,44,45,46,47,48,49,50,51,52,53,54,55,56,57,60,29,30,31,32,33,34,35,36,37,38,39,40,41,42,43,44,45,46,47,49,50,51,52,53,54,55,56,59,60,30,31,33,34,35,39,41,42,43,53,31,32,34,35,39,43,32,33,34,35,36,37,38,39,41,43,44,45,46,50,53,33,34,35,39,41,42,43,47,50,53,34,35,37,39,43,44,50,35,36,37,38,39,40,41,42,43,44,45,48,50,36,37,38,39,40,42,43,44,45,46,47,48,50,57,37,39,41,42,43,44,47,48,50,53,38,39,41,42,43,46,47,48,49,50,51,53,54,59,60,39,41,42,43,44,45,46,47,48,49,50,51,52,53,54,55,56,57,59,60,40,41,42,46,47,48,49,50,51,53,54,59,60,41,42,43,44,45,46,47,48,49,50,51,52,53,54,55,56,57,59,60,42,43,44,45,46,47,48,50,57,43,44,45,46,49,50,51,52,53,55,59,44,45,46,47,48,49,50,51,53,54,57,59,60,46,47,48,49,50,51,52,53,54,59,60,46,47,48,49,50,51,52,53,54,55,57,59,60,47,48,50,53,48,49,50,51,52,53,54,55,56,57,58,59,60,49,50,51,52,53,54,55,56,59,60,50,53,57,53,57,53,57,53,54,57,59,60,54,55,56,57,58,59,61,55,57,59,57,59,60,57,59,60,59,60,59,60,60,61,61];

USEFUL_RES = [{},
	{1,2,3,4,5,6,7,8,9,10,11,12,13,14,15,16},
	{1,2,3,4,6,8,9,11,12,13,14,16},
	{1,4,6,8,9,12,14,16},
	{1,2,3,4,5,6,7,8,9,10,11,12,13,14,15,16},
	{1,2,3,4,6,8,9,11,12,13,14,16},
	{1,4,6,8,9,12,14,16},
	{3,8,9,11,13},
	{1,2,4,6,8,9,12,14,16},
	{7,9,10,12,15},
	{5,7,9,10,11,12,15},
	{1,2,4,5,6,7,8,9,10,11,12,14,15,16},
	{1,2,3,4,5,6,7,8,9,10,11,12,13,14,15,16},
	{1,4,6,7,8,9,10,12,14,15,16},
	{1,3,4,5,6,7,8,9,10,11,12,13,14,15,16},
	{1,4,6,8,9,12,14,16},
	{3,5,7,8,9,10,11,12,13,15},
	{1,5,7,8,9,10,11,12,14,15,16},
	{7,9,10,12,15},
	{1,2,4,6,7,8,9,10,12,14,15,16},
	{1,4,5,6,7,8,9,10,11,12,14,15,16},
	{1,2,3,4,5,6,7,8,9,10,11,12,13,14,15,16},
	{1,3,4,6,7,8,9,10,11,12,13,14,15,16},
	{1,2,3,4,5,6,7,8,9,10,11,12,13,14,15,16},
	{3,8,9,11,13},
	{5,7,9,10,11,12,15},
	{1,4,6,8,9,12,14,16},
	{1,2,4,5,6,7,8,9,10,11,12,14,15,16},
	{1,2,4,5,6,7,8,9,10,11,12,14,15,16},
	{3,8,9,11,13},
	{1,2,4,6,8,9,12,14,16},
	{1,4,5,6,7,8,9,10,11,12,14,15,16},
	{1,3,4,5,6,7,8,9,10,11,12,13,14,15,16},
	{1,2,3,4,5,6,7,8,9,10,11,12,13,14,15,16},
	{1,2,4,5,6,7,8,9,10,11,12,14,15,16},
	{1,4,6,8,9,12,14,16},
	{1,2,3,4,6,7,8,9,10,11,12,13,14,15,16},
	{1,2,4,5,6,7,8,9,10,11,12,14,15,16},
	{1,2,4,6,8,9,12,14,16},
	{1,3,7,8,9,10,11,12,13,14,15,16},
	{1,2,3,4,6,8,9,11,12,13,14,16},
	{1,3,4,5,6,7,8,9,10,11,12,13,14,15,16},
	{5,7,8,9,10,11,12,15},
	{1,5,7,8,9,10,11,12,14,15,16},
	{1,2,3,4,6,8,9,11,12,13,14,16},
	{1,2,4,6,7,8,9,10,12,14,15,16},
	{1,2,3,4,6,8,9,11,12,13,14,16},
	{1,2,4,5,6,7,8,9,10,11,12,14,15,16},
	{5,7,9,10,11,12,15},
	{1,2,4,6,8,9,12,14,16},
	{1,4,5,6,7,8,9,10,11,12,14,15,16},
	{1,8,12,14,16},
	{1,2,4,6,7,8,9,10,12,14,15,16},
	{1,2,4,6,7,8,9,10,12,14,15,16},
	{1,2,3,4,5,6,7,8,9,10,11,12,13,14,15,16},
	{1,2,3,4,6,8,9,11,12,13,14,16},
	{1,3,5,7,8,9,10,11,12,13,14,15,16},
	{5,7,9,10,11,12,15},
	{7,9,10,12,15},
	{1,2,3,4,5,6,7,8,9,10,11,12,13,14,15,16},
	{5,7,9,10,11,12,15},
	{}];

POTENTIAL_ACT = [{2,3,4,5,6,7,9,12,13,14,15,16,18,20,21,22,23,24,27,28,29,31,32,33,34,35,36,37,38,39,40,41,42,44,45,46,47,48,50,51,52,53,54,55,56,57,60},
	{2,3,5,6,9,12,13,20,22,24,28,29,31,34,35,37,38,39,41,45,46,47,48,50,53,54,55,56,60},
	{2,3,5,6,8,13,15,17,22,23,24,25,30,33,34,37,40,41,42,45,47,55,56,57,60},
	{2,3,4,5,6,7,9,12,13,14,15,16,20,21,22,23,24,27,28,29,31,32,33,34,35,36,37,38,39,41,42,45,46,47,48,50,51,53,54,55,56,60},
	{2,5,11,12,13,15,17,18,21,22,24,26,28,29,32,33,34,35,38,42,43,44,48,49,51,55,57,58,60,61},
	{2,3,4,5,6,7,9,12,13,14,15,16,20,21,22,23,24,27,28,29,31,32,33,34,35,36,37,38,39,41,42,45,46,47,48,50,51,53,54,55,56,60},
	{2,5,10,11,12,13,14,15,17,18,19,20,21,22,23,24,26,28,29,32,33,34,35,37,38,40,42,43,44,46,48,49,51,53,54,55,57,58,59,60,61},
	{2,3,4,5,6,7,8,9,12,13,14,15,16,17,18,20,21,22,23,24,25,27,28,29,30,31,32,33,34,35,36,37,38,39,40,41,42,43,44,45,46,47,48,50,51,52,53,54,55,56,57,60},
	{2,3,4,5,6,7,8,9,10,11,12,13,14,15,16,17,18,19,20,21,22,23,24,25,26,27,28,29,30,31,32,33,34,35,36,37,38,39,40,41,42,43,44,45,46,47,48,49,50,51,53,54,55,56,57,58,59,60,61},
	{2,5,10,11,12,13,14,15,17,18,19,20,21,22,23,24,26,28,29,32,33,34,35,37,38,40,42,43,44,46,48,49,51,53,54,55,57,58,59,60,61},
	{2,3,5,6,8,11,12,13,15,17,18,21,22,23,24,25,26,28,29,30,32,33,34,35,37,38,40,41,42,43,44,45,47,48,49,51,55,56,57,58,60,61},
	{2,3,4,5,6,7,9,10,11,12,13,14,15,16,17,18,19,20,21,22,23,24,26,27,28,29,31,32,33,34,35,36,37,38,39,40,41,42,43,44,45,46,47,48,49,50,51,52,53,54,55,56,57,58,59,60,61},
	{2,3,5,6,8,13,15,17,22,23,24,25,30,33,34,37,40,41,42,45,47,55,56,57,60},
	{2,3,4,5,6,7,9,12,13,14,15,16,18,20,21,22,23,24,27,28,29,31,32,33,34,35,36,37,38,39,40,41,42,44,45,46,47,48,50,51,52,53,54,55,56,57,60},
	{2,5,10,11,12,13,14,15,17,18,19,20,21,22,23,24,26,28,29,32,33,34,35,37,38,40,42,43,44,46,48,49,51,53,54,55,57,58,59,60,61},
	{2,3,4,5,6,7,9,12,13,14,15,16,18,20,21,22,23,24,27,28,29,31,32,33,34,35,36,37,38,39,40,41,42,44,45,46,47,48,50,51,52,53,54,55,56,57,60}];
